NAME : block_11.595492.tour
COMMENT : Length = 595492
COMMENT : Found by LKH-3 [Keld Helsgaun] Wed Apr 22 15:45:11 2026
TYPE : TOUR
DIMENSION : 169
TOUR_SECTION
78
77
76
75
54
55
56
36
37
57
58
38
21
39
59
80
60
40
22
23
41
61
81
96
110
124
111
97
82
62
42
24
25
43
63
83
98
112
125
137
136
146
147
156
157
148
138
126
113
99
84
64
44
26
11
12
27
45
65
85
100
114
127
139
149
158
159
150
140
128
115
101
86
66
46
28
13
14
29
47
67
87
102
116
129
141
151
160
164
165
167
168
166
162
161
152
142
130
117
103
88
68
48
30
15
6
7
16
31
49
69
89
104
118
131
143
153
163
154
144
132
119
105
90
70
50
32
17
18
9
8
3
4
5
10
19
20
35
53
73
74
93
108
107
92
72
52
34
33
51
71
91
106
120
121
134
133
145
155
2
169
1
135
123
122
109
95
94
79
-1
EOF
